(set-logic QF_S)
(declare-fun var_0xINPUT_274679 () String)
(assert (and (= (len var_0xINPUT_274679) 0) (= (len var_0xINPUT_274679) 0) (not (= var_0xINPUT_274679 "Example:")) (not (= var_0xINPUT_274679 "CQALcCP5TB"))))
(check-sat var_0xINPUT_274679)